NAME: S076D3_25
COMMENT: 1540.76
VEHICLE: 23
TIME: 460.3081
DIMENSION: 76
CAPACITY: 160
DELIVERY_SECTION
0 0 0
1 1 16
2 1 8
3 1 1.6
4 1 1.4
5 2 16
6 2 16
7 2 1.6
8 2 1.6
9 2 1.6
10 2 0.2
11 3 16
12 3 8
13 4 40
14 4 16
15 4 16
16 4 1.6
17 4 1.6
18 4 0.8
19 5 16
20 5 1
21 6 40
22 6 16
23 6 1.6
24 6 1.6
25 6 1.6
26 6 1.2
27 7 16
28 7 1.6
29 7 1.6
30 7 1.6
31 7 1.2
32 8 40
33 8 16
34 8 8
35 9 16
36 9 1.6
37 9 1.6
38 9 1.6
39 9 0.2
40 10 40
41 10 16
42 10 16
43 10 1.6
44 10 1.6
45 10 1.6
46 10 0.2
47 11 16
48 11 1.6
49 11 1.6
50 11 1.6
51 11 0.2
52 12 40
53 12 1.6
54 12 1.6
55 12 1.6
56 12 1.2
57 13 16
58 13 8
59 13 1.6
60 13 1.4
61 14 40
62 14 16
63 14 16
64 14 1.6
65 14 1.6
66 14 1.6
67 14 1.6
68 14 0.6
69 15 16
70 15 1.6
71 15 1.6
72 15 0.8
73 16 16
74 16 1.6
75 16 1.6
76 16 1.6
77 16 0.2
78 17 16
79 17 8
80 17 1.6
81 17 1.6
82 17 1.6
83 17 1.2
84 18 40
85 18 16
86 18 8
87 18 1.6
88 18 1.4
89 19 16
90 19 1.6
91 19 1.6
92 19 0.8
93 20 16
94 20 16
95 20 1.6
96 20 1.6
97 20 1.6
98 20 0.2
99 21 16
100 21 16
101 22 40
102 22 1.6
103 22 1.6
104 22 1.6
105 22 1.2
106 23 16
107 23 1.6
108 23 1.6
109 23 0.8
110 24 40
111 24 16
112 24 1.6
113 24 1.6
114 24 1.6
115 24 0.2
116 25 16
117 25 8
118 25 1.6
119 25 1.6
120 25 1.6
121 25 1.6
122 25 0.6
123 26 16
124 26 1.6
125 26 1.4
126 27 16
127 27 1.6
128 27 1.6
129 27 0.8
130 28 40
131 28 16
132 28 16
133 28 1.6
134 28 1.6
135 28 0.8
136 29 16
137 29 8
138 29 1.6
139 29 1.6
140 29 0.8
141 30 16
142 30 16
143 30 1.6
144 30 1.6
145 30 1.6
146 30 1.2
147 31 16
148 31 1.6
149 31 1.6
150 31 0.8
151 32 40
152 32 16
153 32 16
154 32 1.6
155 32 1.6
156 32 1.6
157 32 1.6
158 32 0.6
159 33 16
160 33 8
161 34 40
162 34 16
163 34 1.6
164 34 1.4
165 35 16
166 35 1.6
167 35 1.6
168 35 1.6
169 35 1.2
170 36 40
171 36 16
172 36 8
173 36 1.6
174 36 1.6
175 36 0.8
176 37 16
177 37 1
178 38 40
179 38 16
180 38 16
181 39 16
182 39 1.6
183 39 1.6
184 39 1.6
185 39 1.6
186 39 0.6
187 40 40
188 40 1.6
189 40 1.6
190 40 1.6
191 40 1.6
192 40 0.6
193 41 16
194 41 1.6
195 41 1.6
196 41 1.6
197 41 1.6
198 41 0.6
199 42 40
200 42 16
201 42 16
202 42 1.6
203 42 1.6
204 42 1.6
205 42 1.6
206 42 0.6
207 43 16
208 43 8
209 43 1.6
210 43 0.4
211 44 16
212 44 1.6
213 44 1.4
214 45 16
215 45 16
216 45 1.6
217 45 0.4
218 46 40
219 46 16
220 46 16
221 46 1.6
222 46 1.6
223 46 1.6
224 46 1.6
225 46 0.6
226 47 16
227 47 8
228 47 1.6
229 47 1.6
230 47 1.6
231 47 0.2
232 48 16
233 48 16
234 48 1.6
235 48 1.6
236 48 1.6
237 48 1.6
238 48 0.6
239 49 40
240 49 1.6
241 49 1.6
242 49 1.6
243 49 1.2
244 50 40
245 50 16
246 50 16
247 50 1.6
248 50 0.4
249 51 16
250 51 16
251 51 1
252 52 40
253 52 16
254 52 1.6
255 52 1.6
256 52 1.6
257 52 0.2
258 53 40
259 53 16
260 53 1.6
261 53 1.4
262 54 40
263 54 16
264 54 8
265 54 1.6
266 54 1.4
267 55 16
268 55 16
269 55 1.6
270 55 1.6
271 55 1.6
272 55 1.2
273 56 40
274 56 16
275 56 16
276 56 1.6
277 56 1.4
278 57 40
279 57 16
280 57 8
281 57 1.6
282 57 1.6
283 57 1.6
284 57 1.2
285 58 40
286 58 16
287 58 1.6
288 58 1.4
289 59 40
290 59 1.6
291 59 1.6
292 59 1.6
293 59 0.2
294 60 40
295 60 16
296 60 16
297 60 1.6
298 60 1.6
299 60 1.6
300 60 1.6
301 60 0.6
302 61 40
303 61 16
304 61 16
305 61 1.6
306 61 1.6
307 61 1.6
308 61 1.2
309 62 40
310 62 8
311 62 1.6
312 62 1.4
313 63 40
314 63 8
315 63 1.6
316 63 1.6
317 63 0.8
318 64 40
319 64 16
320 64 16
321 64 1.6
322 64 1.6
323 64 1.6
324 64 0.2
325 65 40
326 65 16
327 65 16
328 65 1.6
329 65 1.6
330 65 1.6
331 65 1.6
332 65 0.6
333 66 40
334 66 1.6
335 66 1.6
336 66 0.8
337 67 40
338 67 16
339 67 1.6
340 67 1.6
341 67 1.6
342 67 0.2
343 68 40
344 68 16
345 68 8
346 68 1.6
347 68 1.6
348 68 0.8
349 69 40
350 69 16
351 69 16
352 69 1
353 70 16
354 70 16
355 70 1.6
356 70 1.6
357 70 1.6
358 70 0.2
359 71 40
360 71 16
361 71 8
362 71 1.6
363 71 1.6
364 71 1.6
365 71 0.2
366 72 40
367 72 16
368 72 1
369 73 40
370 73 16
371 73 1.6
372 73 0.4
373 74 16
374 74 16
375 75 40
376 75 16
377 75 16
378 75 1.6
379 75 1.4
PICKUP_SECTION
NODE_SECTION
40 40

22 22

36 26

21 45

45 35

55 20

33 34

50 50

55 45

26 59

40 66

55 65

35 51

62 35

62 57

62 24

21 36

33 44

 9 56

62 48

66 14

44 13

26 13

11 28

 7 43

17 64

41 46

55 34

35 16

52 26

43 26

31 76

22 53

26 29

50 40

55 50

54 10

60 15

47 66

30 60

30 50

12 17

15 14

16 19

21 48

50 30

51 42

50 15

48 21

12 38

15 56

29 39

54 38

55 57

67 41

10 70

 6 25

65 27

40 60

70 64

64  4

36  6

30 20

20 30

15  5

50 70

57 72

45 42

38 33

50  4

66  8

59  5

35 60

27 24

40 20

40 37
DISTANCE_SECTION
DEPOT_SECTION
0
EOF